
  19    0


   0  11 2 3 4 5 6 8 14 15 16 17 18 
   7   3 12 10 9 
  10   2 12 11 
   2   2 13 9 
   2   2 11 9 
   4   1 7 
   4   1 9 
   6   1 10 
   7   1 19
   2   1 19
   3   1 19
   3   1 19
   9   1 19
   8   1 19
   9   1 19
   6   1 19
   1   1 19
   1   1 19
   0   0 
